Traveling Salesman Problem/TSP_generados/Aleatorio1621103227_5.tsp
NAME: Aleatorio1621103227_5.tsp
COMMENT: Randomly generated scenario
TYPE: TSP
DIMENSION: 5
EDGE_WEIGHT_TYPE: ATT
NODE_COORD_SECTION
1 21.17 49.04
2 24.88 20.39
3 24.52 49.66
4 22.55 36.42
5 37.15 1.19
