Traveling Salesman Problem/TSP_generados/Aleatorio1621103227_5.opt.tour
NAME: Aleatorio1621103227_5.opt.tour
COMMENT: Optimal solution for Aleatorio1621103227_5 (105.17487254002516)
TYPE: TOUR
DIMENSION: 5
TOUR_SECTION
1 3 5 2 4
-1
EOF
